param:      i:
                pmin pmax Cost :=
            1	0		900  9
            2	10		850  7
            3	20		750  5;
           
param:      j:
                Demand:=
            1	210
            2	190
            3	420
            4	120;
        
param distance :  1  2 3 4 := 
                1 10 8 3 9
                2 4  5 6 1
                3 7  8 9 4 ;
